ATOMIC_SPECIES
Si   1.0000 Si_ONCV_PBE-1.0.upf upf201

NUMERICAL_ORBITAL
Si_gga_8au_60Ry_2s2p1d.orb

LATTICE_CONSTANT
15.0000000000

LATTICE_VECTORS
        1.0000000000        0.0000000000        0.0000000000
        0.0000000000        1.0000000000        0.0000000000
        0.0000000000        0.0000000000        1.0000000000

ATOMIC_POSITIONS
Direct

Si #label
0.0000   #magnetism
2 #number of atoms
        0.0000000000        0.0000000000        0.0000000000 m 0 0 0
        0.2851413851        0.0000000000        0.0000000000 m 1 0 0
