LatticeConstant 1.0 Ang
%block LatticeVectors
        4.0782999992         0.0000000000         0.0000000000
        0.0000000000         4.0782999992         0.0000000000
        0.0000000000         0.0000000000         4.0782999992
%endblock LatticeVectors

NumberOfAtoms 4
AtomicCoordinatesFormat Ang
%block AtomicCoordinatesAndAtomicSpecies
     0.000000000         0.000000000         0.000000000  1 #  1: Au  
     0.000000000         2.039150000         2.039150000  1 #  2: Au 
     2.039150000         0.000000000         2.039150000  1 #  3: Au
     2.039150000         2.039150000         0.000000000  1 #  4: Au  
%endblock AtomicCoordinatesAndAtomicSpecies

NumberOfSpecies 1
%block ChemicalSpeciesLabel
 1 79 Au
%endblock ChemicalSpeciesLabel
