Si2
1.0
3.84 0.00 0.00
0.00 3.84 0.00
0.00 0.00 3.84
Si
2
Direct
0.00 0.00 0.00
0.25 0.25 0.25
